g3 1 1 0	# problem sulfurdioxide
 2 0 14 0 0 	# vars, constraints, objectives, ranges, eqns
 0 13 0 0 0 0	# nonlinear constrs, objs; ccons: lin, nonlin, nd, nzlb
 0 0	# network constraints: nonlinear, linear
 0 2 0 	# nonlinear vars in constraints, objectives, both
 0 0 0 1	# linear network variables; functions; arith, flags
 0 0 0 0 0 	# discrete variables: binary, integer, nonlinear (b,c,o)
 0 20 	# nonzeros in Jacobian, obj. gradient
 0 0	# max name lengths: constraints, variables
 0 0 0 0 0	# common exprs: b,c,o,c1,o1
O0 0
o0
o54
5
o43
v0
o2
n3
o43
v1
o2
n-0.0159272204
o5
v1
n-1
o2
n1.0875
o43
o0
o16
o44
o2
n-1.8182240386401636
v1
n1
o2
n1.916
o43
o0
o16
o44
o2
n-4.328441389559726
v1
n1
n-4.5414235721
O1 0
o5
v0
n-1.0
O2 0
o16
o5
v0
n-2.0
O3 0
o0
o54
4
o2
n3.0
o5
v1
n-1.0
o2
n0.0159272204
o5
v1
n-2.0
o2
o2
n8.293293702396435
o5
o0
o16
o44
o2
n-4.328441389559726
v1
n1.0
n-1.0
o44
o2
n-4.328441389559726
v1
o2
o2
n1.9773186420211777
o5
o0
o16
o44
o2
n-1.8182240386401636
v1
n1.0
n-1.0
o44
o2
n-1.8182240386401636
v1
n4.4732289572
O4 0
o54
6
o2
n-3.0
o5
v1
n-2.0
o2
n-0.0318544408
o5
v1
n-3.0
o2
o2
n-3.5952082869742297
o5
o0
o16
o44
o2
n-1.8182240386401636
v1
n1.0
n-1.0
o44
o2
n-1.8182240386401636
v1
o2
o2
n-3.5952082869742297
o5
o0
o16
o44
o2
n-1.8182240386401636
v1
n1.0
n-2.0
o44
o2
n-3.636448077280327
v1
o2
o2
n-35.897035717227745
o5
o0
o16
o44
o2
n-4.328441389559726
v1
n1.0
n-1.0
o44
o2
n-4.328441389559726
v1
o2
o2
n-35.897035717227745
o5
o0
o16
o44
o2
n-4.328441389559726
v1
n1.0
n-2.0
o44
o2
n-8.656882779119451
v1
O5 0
o54
16
o2
o2
n0.01744413
o5
v0
n4
v1
o2
o2
n1.814878
v0
o5
v1
n0.45
o2
o2
n-2.246338
v0
o5
v1
n0.9994
o2
o2
n-0.4602906
o5
v0
n2
v1
o2
o2
n0.1097049
o5
v0
n3
o5
v1
n0.45
o2
o2
o2
n-0.9485769
v0
o5
v1
n2.907
o44
o16
o5
v0
n2
o2
o2
o2
n-0.8751541
o5
v0
n3
o5
v1
n2.992
o44
o16
o5
v0
n2
o2
o2
o2
n0.4228777
o5
v0
n2
o5
v1
n0.87
o44
o2
n-1.0
v0
o2
o2
o2
n-0.4174962
o5
v0
n2
o5
v1
n3.302
o44
o16
o5
v0
n2
o2
o2
o2
n-0.002903451
o5
v0
n7
o5
v1
n1.002
o44
o2
n-1.0
v0
o2
o2
o2
n1.64041
v0
o5
v1
n1.15
o44
o0
o2
n-1.061
o5
o0
v0
n-0.832
n2
o2
n-0.967
o5
o0
v1
n-1.276
n2
o2
o2
o2
n-0.4103535
v0
o5
v1
n0.997
o44
o0
o2
n-0.945
o5
o0
v0
n-0.69
n2
o2
n-2.538
o5
o0
v1
n-0.738
n2
o2
o2
o2
n-0.08316597
o5
v0
n3
o5
v1
n1.36
o44
o0
o2
n-1.741
o5
o0
v0
n-0.35
n2
o2
n-2.758
o5
o0
v1
n-0.71
n2
o2
o2
o2
n-0.2728126
o5
v0
n2
o5
v1
n2.086
o44
o0
o2
n-1.139
o5
o0
v0
n-0.961
n2
o2
n-1.062
o5
o0
v1
n-0.997
n2
o2
o2
o2
n-0.1075782
o5
v0
n2
o5
v1
n0.855
o44
o0
o2
n-1.644
o5
o0
v0
n-0.981
n2
o2
n-1.039
o5
o0
v1
n-1.35
n2
o2
o2
o2
n-0.4348434
v0
o5
v1
n0.785
o44
o0
o2
n-0.647
o5
o0
v0
n-0.333
n2
o2
n-0.41
o5
o0
v1
n-0.919
n2
O6 0
o54
27
o2
n1.814878
o5
v1
n0.45
o2
n-2.246338
o5
v1
n0.9994
o2
o2
n0.3291147
o5
v0
n2.0
o5
v1
n0.45
o2
o2
n0.06977652
v1
o5
v0
n3.0
o2
o2
n1.64041
o5
v1
n1.15
o44
o0
o2
n-1.061
o5
o0
v0
n-0.832
n2.0
o2
n-0.967
o5
o0
v1
n-1.276
n2.0
o2
o2
n-0.9205812
v0
v1
o2
o2
n-0.9485769
o5
v1
n2.907
o44
o16
o5
v0
n2.0
o2
o2
n-0.4348434
o5
v1
n0.785
o44
o0
o2
n-0.647
o5
o0
v0
n-0.333
n2.0
o2
n-0.41
o5
o0
v1
n-0.919
n2.0
o2
o2
n-0.4103535
o5
v1
n0.997
o44
o0
o2
n-2.538
o5
o0
v1
n-0.738
n2.0
o2
n-0.945
o5
o0
v0
n-0.69
n2.0
o2
o2
o2
n0.8349924
o5
v0
n3.0
o5
v1
n3.302
o44
o16
o5
v0
n2.0
o2
o2
o2
n1.8971538
o5
v0
n2.0
o5
v1
n2.907
o44
o16
o5
v0
n2.0
o2
o2
o2
n1.7503082
o5
v0
n4.0
o5
v1
n2.992
o44
o16
o5
v0
n2.0
o2
o2
o2
n0.8457554
v0
o5
v1
n0.87
o44
o2
n-1.0
v0
o2
o2
o2
n0.002903451
o5
v0
n7.0
o5
v1
n1.002
o44
o2
n-1.0
v0
o2
o2
o2
n-0.8349924
v0
o5
v1
n3.302
o44
o16
o5
v0
n2.0
o2
o2
o2
n-0.4228777
o5
v0
n2.0
o5
v1
n0.87
o44
o2
n-1.0
v0
o2
o2
o2
n-0.5456252
v0
o5
v1
n2.086
o44
o0
o2
n-1.062
o5
o0
v1
n-0.997
n2.0
o2
n-1.139
o5
o0
v0
n-0.961
n2.0
o2
o2
o2
n-0.020324157
o5
v0
n6.0
o5
v1
n1.002
o44
o2
n-1.0
v0
o2
o2
o2
n-2.6254623
o5
v0
n2.0
o5
v1
n2.992
o44
o16
o5
v0
n2.0
o2
o2
o2
n-0.2151564
v0
o5
v1
n0.855
o44
o0
o2
n-1.039
o5
o0
v1
n-1.35
n2.0
o2
n-1.644
o5
o0
v0
n-0.981
n2.0
o2
o2
o2
n-0.24949791000000002
o5
v0
n2.0
o5
v1
n1.36
o44
o0
o2
n-2.758
o5
o0
v1
n-0.71
n2.0
o2
n-1.741
o5
o0
v0
n-0.35
n2.0
o2
o2
o2
o2
n1.64041
v0
o5
v1
n1.15
o0
o2
n-2.122
v0
n1.7655039999999997
o44
o0
o2
n-1.061
o5
o0
v0
n-0.832
n2.0
o2
n-0.967
o5
o0
v1
n-1.276
n2.0
o2
o2
o2
o2
n-0.08316597
o5
v0
n3.0
o5
v1
n1.36
o0
o2
n-3.482
v0
n1.2187
o44
o0
o2
n-2.758
o5
o0
v1
n-0.71
n2.0
o2
n-1.741
o5
o0
v0
n-0.35
n2.0
o2
o2
o2
o2
n-0.4348434
v0
o5
v1
n0.785
o0
o2
n-1.294
v0
n0.43090200000000006
o44
o0
o2
n-0.647
o5
o0
v0
n-0.333
n2.0
o2
n-0.41
o5
o0
v1
n-0.919
n2.0
o2
o2
o2
o2
n-0.2728126
o5
v0
n2.0
o5
v1
n2.086
o0
o2
n-2.278
v0
n2.189158
o44
o0
o2
n-1.062
o5
o0
v1
n-0.997
n2.0
o2
n-1.139
o5
o0
v0
n-0.961
n2.0
o2
o2
o2
o2
n-0.4103535
v0
o5
v1
n0.997
o0
o2
n-1.89
v0
n1.3040999999999998
o44
o0
o2
n-2.538
o5
o0
v1
n-0.738
n2.0
o2
n-0.945
o5
o0
v0
n-0.69
n2.0
o2
o2
o2
o2
n-0.1075782
o5
v0
n2.0
o5
v1
n0.855
o0
o2
n-3.288
v0
n3.2255279999999997
o44
o0
o2
n-1.039
o5
o0
v1
n-1.35
n2.0
o2
n-1.644
o5
o0
v0
n-0.981
n2.0
O7 0
o54
44
o2
o2
n0.6582294
o5
v1
n0.45
v0
o2
o2
n0.20932955999999997
v1
o5
v0
n2.0
o2
o2
n0.8457554
o5
v1
n0.87
o44
o2
n-1.0
v0
o2
o2
n-0.8349924
o5
v1
n3.302
o44
o16
o5
v0
n2.0
o2
o2
n-0.5456252
o5
v1
n2.086
o44
o0
o2
n-1.062
o5
o0
v1
n-0.997
n2.0
o2
n-1.139
o5
o0
v0
n-0.961
n2.0
o2
o2
n-0.2151564
o5
v1
n0.855
o44
o0
o2
n-1.039
o5
o0
v1
n-1.35
n2.0
o2
n-1.644
o5
o0
v0
n-0.981
n2.0
o2
o2
o2
n12.252157400000002
o5
v1
n2.992
o5
v0
n3.0
o44
o16
o5
v0
n2.0
o2
o2
o2
n0.6214671028000001
o5
v1
n2.086
o5
v0
n2.0
o44
o0
o2
n-1.062
o5
o0
v1
n-0.997
n2.0
o2
n-1.139
o5
o0
v0
n-0.961
n2.0
o2
o2
o2
n5.6914614
o5
v1
n2.907
v0
o44
o16
o5
v0
n2.0
o2
o2
o2
n0.4228777
o5
v1
n0.87
o5
v0
n2.0
o44
o2
n-1.0
v0
o2
o2
o2
n4.174962
o5
v1
n3.302
o5
v0
n2.0
o44
o16
o5
v0
n2.0
o2
o2
o2
n0.5626873596
v0
o5
v1
n0.785
o44
o0
o2
n-0.647
o5
o0
v0
n-0.333
n2.0
o2
n-0.41
o5
o0
v1
n-0.919
n2.0
o2
o2
o2
n0.5626873596
o5
v1
n0.785
o0
v0
n-0.333
o44
o0
o2
n-0.647
o5
o0
v0
n-0.333
n2.0
o2
n-0.41
o5
o0
v1
n-0.919
n2.0
o2
o2
o2
n0.28958390754
o5
v1
n1.36
o5
v0
n3.0
o44
o0
o2
n-2.758
o5
o0
v1
n-0.71
n2.0
o2
n-1.741
o5
o0
v0
n-0.35
n2.0
o2
o2
o2
n0.040648314
o5
v1
n1.002
o5
v0
n6.0
o44
o2
n-1.0
v0
o2
o2
o2
n0.35371712159999996
o5
v1
n0.855
o5
v0
n2.0
o44
o0
o2
n-1.039
o5
o0
v1
n-1.35
n2.0
o2
n-1.644
o5
o0
v0
n-0.981
n2.0
o2
o2
o2
n0.7755681149999999
v0
o5
v1
n0.997
o44
o0
o2
n-2.538
o5
o0
v1
n-0.738
n2.0
o2
n-0.945
o5
o0
v0
n-0.69
n2.0
o2
o2
o2
n0.7755681149999999
o5
v1
n0.997
o0
v0
n-0.69
o44
o0
o2
n-2.538
o5
o0
v1
n-0.738
n2.0
o2
n-0.945
o5
o0
v0
n-0.69
n2.0
o2
o2
o2
n1.64041
o5
v1
n1.15
o0
o2
n-2.122
v0
n1.7655039999999997
o44
o0
o2
n-1.061
o5
o0
v0
n-0.832
n2.0
o2
n-0.967
o5
o0
v1
n-1.276
n2.0
o2
o2
o2
n-1.6699848
o5
v1
n3.302
o5
v0
n4.0
o44
o16
o5
v0
n2.0
o2
o2
o2
n-3.7943076
o5
v1
n2.907
o5
v0
n3.0
o44
o16
o5
v0
n2.0
o2
o2
o2
n-3.48095002
v0
o5
v1
n1.15
o44
o0
o2
n-1.061
o5
o0
v0
n-0.832
n2.0
o2
n-0.967
o5
o0
v1
n-1.276
n2.0
o2
o2
o2
n-3.48095002
o5
v1
n1.15
o0
v0
n-0.832
o44
o0
o2
n-1.061
o5
o0
v0
n-0.832
n2.0
o2
n-0.967
o5
o0
v1
n-1.276
n2.0
o2
o2
o2
n-3.5006164
o5
v1
n2.992
o5
v0
n5.0
o44
o16
o5
v0
n2.0
o2
o2
o2
n-0.121944942
o5
v1
n1.002
o5
v0
n5.0
o44
o2
n-1.0
v0
o2
o2
o2
n-0.8457554
v0
o5
v1
n0.87
o44
o2
n-1.0
v0
o2
o2
o2
n-0.8457554
o5
v1
n0.87
v0
o44
o2
n-1.0
v0
o2
o2
o2
n-0.4348434
o5
v1
n0.785
o0
o2
n-1.294
v0
n0.43090200000000006
o44
o0
o2
n-0.647
o5
o0
v0
n-0.333
n2.0
o2
n-0.41
o5
o0
v1
n-0.919
n2.0
o2
o2
o2
n-5.2509246
o5
v1
n2.992
v0
o44
o16
o5
v0
n2.0
o2
o2
o2
n-0.002903451
o5
v1
n1.002
o5
v0
n7.0
o44
o2
n-1.0
v0
o2
o2
o2
n-0.4103535
o5
v1
n0.997
o0
o2
n-1.89
v0
n1.3040999999999998
o44
o0
o2
n-2.538
o5
o0
v1
n-0.738
n2.0
o2
n-0.945
o5
o0
v0
n-0.69
n2.0
o2
o2
o2
n-0.49899582000000003
o5
v1
n1.36
v0
o44
o0
o2
n-2.758
o5
o0
v1
n-0.71
n2.0
o2
n-1.741
o5
o0
v0
n-0.35
n2.0
o2
o2
o2
o2
n1.2429342056000001
v0
o5
v1
n2.086
o0
v0
n-0.961
o44
o0
o2
n-1.062
o5
o0
v1
n-0.997
n2.0
o2
n-1.139
o5
o0
v0
n-0.961
n2.0
o2
o2
o2
o2
n0.8687517226200001
o5
v1
n1.36
o5
v0
n2.0
o0
v0
n-0.35
o44
o0
o2
n-2.758
o5
o0
v1
n-0.71
n2.0
o2
n-1.741
o5
o0
v0
n-0.35
n2.0
o2
o2
o2
o2
n0.7074342431999999
v0
o5
v1
n0.855
o0
v0
n-0.981
o44
o0
o2
n-1.039
o5
o0
v1
n-1.35
n2.0
o2
n-1.644
o5
o0
v0
n-0.981
n2.0
o2
o2
o2
o2
n-0.5456252
o5
v1
n2.086
v0
o0
o2
n-2.278
v0
n2.189158
o44
o0
o2
n-1.062
o5
o0
v1
n-0.997
n2.0
o2
n-1.139
o5
o0
v0
n-0.961
n2.0
o2
o2
o2
o2
n-0.2151564
o5
v1
n0.855
v0
o0
o2
n-3.288
v0
n3.2255279999999997
o44
o0
o2
n-1.039
o5
o0
v1
n-1.35
n2.0
o2
n-1.644
o5
o0
v0
n-0.981
n2.0
o2
o2
o2
o2
n-0.24949791000000002
o5
v1
n1.36
o5
v0
n2.0
o0
o2
n-3.482
v0
n1.2187
o44
o0
o2
n-2.758
o5
o0
v1
n-0.71
n2.0
o2
n-1.741
o5
o0
v0
n-0.35
n2.0
o2
o2
o2
o2
o2
n0.6214671028000001
o5
v1
n2.086
o5
v0
n2.0
o0
v0
n-0.961
o0
o2
n-2.278
v0
n2.189158
o44
o0
o2
n-1.062
o5
o0
v1
n-0.997
n2.0
o2
n-1.139
o5
o0
v0
n-0.961
n2.0
o2
o2
o2
o2
o2
n0.5626873596
v0
o5
v1
n0.785
o0
v0
n-0.333
o0
o2
n-1.294
v0
n0.43090200000000006
o44
o0
o2
n-0.647
o5
o0
v0
n-0.333
n2.0
o2
n-0.41
o5
o0
v1
n-0.919
n2.0
o2
o2
o2
o2
o2
n0.28958390754
o5
v1
n1.36
o5
v0
n3.0
o0
v0
n-0.35
o0
o2
n-3.482
v0
n1.2187
o44
o0
o2
n-2.758
o5
o0
v1
n-0.71
n2.0
o2
n-1.741
o5
o0
v0
n-0.35
n2.0
o2
o2
o2
o2
o2
n0.35371712159999996
o5
v1
n0.855
o5
v0
n2.0
o0
v0
n-0.981
o0
o2
n-3.288
v0
n3.2255279999999997
o44
o0
o2
n-1.039
o5
o0
v1
n-1.35
n2.0
o2
n-1.644
o5
o0
v0
n-0.981
n2.0
o2
o2
o2
o2
o2
n0.7755681149999999
v0
o5
v1
n0.997
o0
v0
n-0.69
o0
o2
n-1.89
v0
n1.3040999999999998
o44
o0
o2
n-2.538
o5
o0
v1
n-0.738
n2.0
o2
n-0.945
o5
o0
v0
n-0.69
n2.0
o2
o2
o2
o2
o2
n-3.48095002
v0
o5
v1
n1.15
o0
v0
n-0.832
o0
o2
n-2.122
v0
n1.7655039999999997
o44
o0
o2
n-1.061
o5
o0
v0
n-0.832
n2.0
o2
n-0.967
o5
o0
v1
n-1.276
n2.0
O8 0
o54
22
o2
n0.01744413
o5
v0
n4.0
o2
n-0.4602906
o5
v0
n2.0
o2
o2
n0.049367205
o5
v0
n3.0
o5
v1
n-0.55
o2
o2
n0.8166951
v0
o5
v1
n-0.55
o2
o2
n-2.2449901972
v0
o5
v1
n-0.0006000000000000449
o2
o2
o2
n1.8864714999999999
v0
o5
v1
n0.1499999999999999
o44
o0
o2
n-1.061
o5
o0
v0
n-0.832
n2.0
o2
n-0.967
o5
o0
v1
n-1.276
n2.0
o2
o2
o2
n0.367903599
o5
v0
n2.0
o5
v1
n-0.13
o44
o2
n-1.0
v0
o2
o2
o2
n-0.11310571920000001
o5
v0
n3.0
o5
v1
n0.3600000000000001
o44
o0
o2
n-2.758
o5
o0
v1
n-0.71
n2.0
o2
n-1.741
o5
o0
v0
n-0.35
n2.0
o2
o2
o2
n-2.6184610672
o5
v0
n3.0
o5
v1
n1.992
o44
o16
o5
v0
n2.0
o2
o2
o2
n-2.7575130483
v0
o5
v1
n1.907
o44
o16
o5
v0
n2.0
o2
o2
o2
n-0.002909257902
o5
v0
n7.0
o5
v1
n0.0020000000000000018
o44
o2
n-1.0
v0
o2
o2
o2
n-0.5690870836
o5
v0
n2.0
o5
v1
n1.0859999999999999
o44
o0
o2
n-1.062
o5
o0
v1
n-0.997
n2.0
o2
n-1.139
o5
o0
v0
n-0.961
n2.0
o2
o2
o2
n-0.341352069
v0
o5
v1
n-0.21499999999999997
o44
o0
o2
n-0.647
o5
o0
v0
n-0.333
n2.0
o2
n-0.41
o5
o0
v1
n-0.919
n2.0
o2
o2
o2
n-1.3785724524
o5
v0
n2.0
o5
v1
n2.302
o44
o16
o5
v0
n2.0
o2
o2
o2
n-0.091979361
o5
v0
n2.0
o5
v1
n-0.14500000000000002
o44
o0
o2
n-1.039
o5
o0
v1
n-1.35
n2.0
o2
n-1.644
o5
o0
v0
n-0.981
n2.0
o2
o2
o2
n-0.4091224395
v0
o5
v1
n-0.0030000000000000027
o44
o0
o2
n-2.538
o5
o0
v1
n-0.738
n2.0
o2
n-0.945
o5
o0
v0
n-0.69
n2.0
o2
o2
o2
o2
n1.64041
v0
o5
v1
n1.15
o0
o2
n-1.934
v1
n2.467784
o44
o0
o2
n-1.061
o5
o0
v0
n-0.832
n2.0
o2
n-0.967
o5
o0
v1
n-1.276
n2.0
o2
o2
o2
o2
n-0.08316597
o5
v0
n3.0
o5
v1
n1.36
o0
o2
n-5.516
v1
n3.9163599999999996
o44
o0
o2
n-2.758
o5
o0
v1
n-0.71
n2.0
o2
n-1.741
o5
o0
v0
n-0.35
n2.0
o2
o2
o2
o2
n-0.4348434
v0
o5
v1
n0.785
o0
o2
n-0.82
v1
n0.75358
o44
o0
o2
n-0.647
o5
o0
v0
n-0.333
n2.0
o2
n-0.41
o5
o0
v1
n-0.919
n2.0
o2
o2
o2
o2
n-0.2728126
o5
v0
n2.0
o5
v1
n2.086
o0
o2
n-2.124
v1
n2.1176280000000003
o44
o0
o2
n-1.062
o5
o0
v1
n-0.997
n2.0
o2
n-1.139
o5
o0
v0
n-0.961
n2.0
o2
o2
o2
o2
n-0.4103535
v0
o5
v1
n0.997
o0
o2
n-5.076
v1
n3.746088
o44
o0
o2
n-2.538
o5
o0
v1
n-0.738
n2.0
o2
n-0.945
o5
o0
v0
n-0.69
n2.0
o2
o2
o2
o2
n-0.1075782
o5
v0
n2.0
o5
v1
n0.855
o0
o2
n-2.078
v1
n2.8053
o44
o0
o2
n-1.039
o5
o0
v1
n-1.35
n2.0
o2
n-1.644
o5
o0
v0
n-0.981
n2.0
O9 0
o54
38
o2
o2
n0.001346994118320101
v0
o5
v1
n-1.0006
o2
o2
n-0.02715196275
o5
v0
n3.0
o5
v1
n-1.55
o2
o2
n-0.44918230500000006
v0
o5
v1
n-1.55
o2
o2
o2
n0.22354749959999998
o5
v0
n2.0
o5
v1
n0.855
o44
o0
o2
n-1.039
o5
o0
v1
n-1.35
n2.0
o2
n-1.644
o5
o0
v0
n-0.981
n2.0
o2
o2
o2
n0.356571588
v0
o5
v1
n0.785
o44
o0
o2
n-0.647
o5
o0
v0
n-0.333
n2.0
o2
n-0.41
o5
o0
v1
n-0.919
n2.0
o2
o2
o2
n0.0012273673185000012
v0
o5
v1
n-1.0030000000000001
o44
o0
o2
n-2.538
o5
o0
v1
n-0.738
n2.0
o2
n-0.945
o5
o0
v0
n-0.69
n2.0
o2
o2
o2
n2.0829543659999996
v0
o5
v1
n0.997
o44
o0
o2
n-2.538
o5
o0
v1
n-0.738
n2.0
o2
n-0.945
o5
o0
v0
n-0.69
n2.0
o2
o2
o2
n0.2829707249999998
v0
o5
v1
n-0.8500000000000001
o44
o0
o2
n-1.061
o5
o0
v0
n-0.832
n2.0
o2
n-0.967
o5
o0
v1
n-1.276
n2.0
o2
o2
o2
n0.5794539624
o5
v0
n2.0
o5
v1
n2.086
o44
o0
o2
n-1.062
o5
o0
v1
n-0.997
n2.0
o2
n-1.139
o5
o0
v0
n-0.961
n2.0
o2
o2
o2
n0.07339069483499998
v0
o5
v1
n-1.2149999999999999
o44
o0
o2
n-0.647
o5
o0
v0
n-0.333
n2.0
o2
n-0.41
o5
o0
v1
n-0.919
n2.0
o2
o2
o2
n0.013337007345
o5
v0
n2.0
o5
v1
n-1.145
o44
o0
o2
n-1.039
o5
o0
v1
n-1.35
n2.0
o2
n-1.644
o5
o0
v0
n-0.981
n2.0
o2
o2
o2
n0.45874349052
o5
v0
n3.0
o5
v1
n1.36
o44
o0
o2
n-2.758
o5
o0
v1
n-0.71
n2.0
o2
n-1.741
o5
o0
v0
n-0.35
n2.0
o2
o2
o2
n-5.2159744458624
o5
v0
n3.0
o5
v1
n0.992
o44
o16
o5
v0
n2.0
o2
o2
o2
n-3.1734737854248003
o5
v0
n2.0
o5
v1
n1.302
o44
o16
o5
v0
n2.0
o2
o2
o2
n-0.6180285727896
o5
v0
n2.0
o5
v1
n0.08599999999999985
o44
o0
o2
n-1.062
o5
o0
v1
n-0.997
n2.0
o2
n-1.139
o5
o0
v0
n-0.961
n2.0
o2
o2
o2
n-5.8185158040000055e-06
o5
v0
n7.0
o5
v1
n-0.998
o44
o2
n-1.0
v0
o2
o2
o2
n-0.04071805891200001
o5
v0
n3.0
o5
v1
n-0.6399999999999999
o44
o0
o2
n-2.758
o5
o0
v1
n-0.71
n2.0
o2
n-1.741
o5
o0
v0
n-0.35
n2.0
o2
o2
o2
n-5.2585773831081
v0
o5
v1
n0.907
o44
o16
o5
v0
n2.0
o2
o2
o2
n-0.04782746787000001
o5
v0
n2.0
o5
v1
n-1.13
o44
o2
n-1.0
v0
o2
o2
o2
n-3.1725529399999997
v0
o5
v1
n1.15
o44
o0
o2
n-1.061
o5
o0
v0
n-0.832
n2.0
o2
n-0.967
o5
o0
v1
n-1.276
n2.0
o2
o2
o2
o2
n2.0767055029019996
v0
o5
v1
n-0.0030000000000000027
o0
v1
n-0.738
o44
o0
o2
n-2.538
o5
o0
v1
n-0.738
n2.0
o2
n-0.945
o5
o0
v0
n-0.69
n2.0
o2
o2
o2
o2
n0.27990869657999995
v0
o5
v1
n-0.21499999999999997
o0
v1
n-0.919
o44
o0
o2
n-0.647
o5
o0
v0
n-0.333
n2.0
o2
n-0.41
o5
o0
v1
n-0.919
n2.0
o2
o2
o2
o2
n1.8864714999999999
v0
o5
v1
n0.1499999999999999
o0
o2
n-1.934
v1
n2.467784
o44
o0
o2
n-1.061
o5
o0
v0
n-0.832
n2.0
o2
n-0.967
o5
o0
v1
n-1.276
n2.0
o2
o2
o2
o2
n1.2087409655664
o5
v0
n2.0
o5
v1
n1.0859999999999999
o0
v1
n-0.997
o44
o0
o2
n-1.062
o5
o0
v1
n-0.997
n2.0
o2
n-1.139
o5
o0
v0
n-0.961
n2.0
o2
o2
o2
o2
n0.6238911471072001
o5
v0
n3.0
o5
v1
n0.3600000000000001
o0
v1
n-0.71
o44
o0
o2
n-2.758
o5
o0
v1
n-0.71
n2.0
o2
n-1.741
o5
o0
v0
n-0.35
n2.0
o2
o2
o2
o2
n0.19113311215799997
o5
v0
n2.0
o5
v1
n-0.14500000000000002
o0
v1
n-1.35
o44
o0
o2
n-1.039
o5
o0
v1
n-1.35
n2.0
o2
n-1.644
o5
o0
v0
n-0.981
n2.0
o2
o2
o2
o2
n-0.11310571920000001
o5
v0
n3.0
o5
v1
n0.3600000000000001
o0
o2
n-5.516
v1
n3.9163599999999996
o44
o0
o2
n-2.758
o5
o0
v1
n-0.71
n2.0
o2
n-1.741
o5
o0
v0
n-0.35
n2.0
o2
o2
o2
o2
n-0.5690870836
o5
v0
n2.0
o5
v1
n1.0859999999999999
o0
o2
n-2.124
v1
n2.1176280000000003
o44
o0
o2
n-1.062
o5
o0
v1
n-0.997
n2.0
o2
n-1.139
o5
o0
v0
n-0.961
n2.0
o2
o2
o2
o2
n-0.341352069
v0
o5
v1
n-0.21499999999999997
o0
o2
n-0.82
v1
n0.75358
o44
o0
o2
n-0.647
o5
o0
v0
n-0.333
n2.0
o2
n-0.41
o5
o0
v1
n-0.919
n2.0
o2
o2
o2
o2
n-0.091979361
o5
v0
n2.0
o5
v1
n-0.14500000000000002
o0
o2
n-2.078
v1
n2.8053
o44
o0
o2
n-1.039
o5
o0
v1
n-1.35
n2.0
o2
n-1.644
o5
o0
v0
n-0.981
n2.0
o2
o2
o2
o2
n-0.4091224395
v0
o5
v1
n-0.0030000000000000027
o0
o2
n-5.076
v1
n3.746088
o44
o0
o2
n-2.538
o5
o0
v1
n-0.738
n2.0
o2
n-0.945
o5
o0
v0
n-0.69
n2.0
o2
o2
o2
o2
n-3.6484358809999997
v0
o5
v1
n0.1499999999999999
o0
v1
n-1.276
o44
o0
o2
n-1.061
o5
o0
v0
n-0.832
n2.0
o2
n-0.967
o5
o0
v1
n-1.276
n2.0
o2
o2
o2
o2
o2
n0.22354749959999998
o5
v0
n2.0
o5
v1
n0.855
o0
v1
n-1.35
o0
o2
n-2.078
v1
n2.8053
o44
o0
o2
n-1.039
o5
o0
v1
n-1.35
n2.0
o2
n-1.644
o5
o0
v0
n-0.981
n2.0
o2
o2
o2
o2
o2
n0.356571588
v0
o5
v1
n0.785
o0
v1
n-0.919
o0
o2
n-0.82
v1
n0.75358
o44
o0
o2
n-0.647
o5
o0
v0
n-0.333
n2.0
o2
n-0.41
o5
o0
v1
n-0.919
n2.0
o2
o2
o2
o2
o2
n2.0829543659999996
v0
o5
v1
n0.997
o0
v1
n-0.738
o0
o2
n-5.076
v1
n3.746088
o44
o0
o2
n-2.538
o5
o0
v1
n-0.738
n2.0
o2
n-0.945
o5
o0
v0
n-0.69
n2.0
o2
o2
o2
o2
o2
n0.5794539624
o5
v0
n2.0
o5
v1
n2.086
o0
v1
n-0.997
o0
o2
n-2.124
v1
n2.1176280000000003
o44
o0
o2
n-1.062
o5
o0
v1
n-0.997
n2.0
o2
n-1.139
o5
o0
v0
n-0.961
n2.0
o2
o2
o2
o2
o2
n0.45874349052
o5
v0
n3.0
o5
v1
n1.36
o0
v1
n-0.71
o0
o2
n-5.516
v1
n3.9163599999999996
o44
o0
o2
n-2.758
o5
o0
v1
n-0.71
n2.0
o2
n-1.741
o5
o0
v0
n-0.35
n2.0
o2
o2
o2
o2
o2
n-3.1725529399999997
v0
o5
v1
n1.15
o0
v1
n-1.276
o0
o2
n-1.934
v1
n2.467784
o44
o0
o2
n-1.061
o5
o0
v0
n-0.832
n2.0
o2
n-0.967
o5
o0
v1
n-1.276
n2.0
O10 0
o54
38
o2
n0.8166951
o5
v1
n-0.55
o2
n0.06977652
o5
v0
n3.0
o2
n-2.2449901972
o5
v1
n-0.0006000000000000449
o2
o2
n1.8864714999999999
o5
v1
n0.1499999999999999
o44
o0
o2
n-1.061
o5
o0
v0
n-0.832
n2.0
o2
n-0.967
o5
o0
v1
n-1.276
n2.0
o2
o2
n0.148101615
o5
v1
n-0.55
o5
v0
n2.0
o2
o2
n-2.7575130483
o5
v1
n1.907
o44
o16
o5
v0
n2.0
o2
o2
n-0.341352069
o5
v1
n-0.21499999999999997
o44
o0
o2
n-0.647
o5
o0
v0
n-0.333
n2.0
o2
n-0.41
o5
o0
v1
n-0.919
n2.0
o2
o2
n-0.4091224395
o5
v1
n-0.0030000000000000027
o44
o0
o2
n-2.538
o5
o0
v1
n-0.738
n2.0
o2
n-0.945
o5
o0
v0
n-0.69
n2.0
o2
o2
o2
n0.356571588
o5
v1
n0.785
o0
v1
n-0.919
o44
o0
o2
n-0.647
o5
o0
v0
n-0.333
n2.0
o2
n-0.41
o5
o0
v1
n-0.919
n2.0
o2
o2
o2
n5.2369221344
o5
v1
n1.992
o5
v0
n4.0
o44
o16
o5
v0
n2.0
o2
o2
o2
n5.5150260966
o5
v1
n1.907
o5
v0
n2.0
o44
o16
o5
v0
n2.0
o2
o2
o2
n0.735807198
v0
o5
v1
n-0.13
o44
o2
n-1.0
v0
o2
o2
o2
n0.002909257902
o5
v1
n0.0020000000000000018
o5
v0
n7.0
o44
o2
n-1.0
v0
o2
o2
o2
n2.0829543659999996
o5
v1
n0.997
o0
v1
n-0.738
o44
o0
o2
n-2.538
o5
o0
v1
n-0.738
n2.0
o2
n-0.945
o5
o0
v0
n-0.69
n2.0
o2
o2
o2
n2.7571449048
o5
v1
n2.302
o5
v0
n3.0
o44
o16
o5
v0
n2.0
o2
o2
o2
n-0.33931715760000003
o5
v1
n0.3600000000000001
o5
v0
n2.0
o44
o0
o2
n-2.758
o5
o0
v1
n-0.71
n2.0
o2
n-1.741
o5
o0
v0
n-0.35
n2.0
o2
o2
o2
n-0.020364805314
o5
v1
n0.0020000000000000018
o5
v0
n6.0
o44
o2
n-1.0
v0
o2
o2
o2
n-0.367903599
o5
v1
n-0.13
o5
v0
n2.0
o44
o2
n-1.0
v0
o2
o2
o2
n-7.8553832016000005
o5
v1
n1.992
o5
v0
n2.0
o44
o16
o5
v0
n2.0
o2
o2
o2
n-1.1381741672
v0
o5
v1
n1.0859999999999999
o44
o0
o2
n-1.062
o5
o0
v1
n-0.997
n2.0
o2
n-1.139
o5
o0
v0
n-0.961
n2.0
o2
o2
o2
n-2.7571449048
v0
o5
v1
n2.302
o44
o16
o5
v0
n2.0
o2
o2
o2
n-0.183958722
v0
o5
v1
n-0.14500000000000002
o44
o0
o2
n-1.039
o5
o0
v1
n-1.35
n2.0
o2
n-1.644
o5
o0
v0
n-0.981
n2.0
o2
o2
o2
n-3.1725529399999997
o5
v1
n1.15
o0
v1
n-1.276
o44
o0
o2
n-1.061
o5
o0
v0
n-0.832
n2.0
o2
n-0.967
o5
o0
v1
n-1.276
n2.0
o2
o2
o2
o2
n0.44709499919999995
v0
o5
v1
n0.855
o0
v1
n-1.35
o44
o0
o2
n-1.039
o5
o0
v1
n-1.35
n2.0
o2
n-1.644
o5
o0
v0
n-0.981
n2.0
o2
o2
o2
o2
n1.8864714999999999
v0
o5
v1
n0.1499999999999999
o0
o2
n-2.122
v0
n1.7655039999999997
o44
o0
o2
n-1.061
o5
o0
v0
n-0.832
n2.0
o2
n-0.967
o5
o0
v1
n-1.276
n2.0
o2
o2
o2
o2
n1.37623047156
o5
v1
n1.36
o5
v0
n2.0
o0
v1
n-0.71
o44
o0
o2
n-2.758
o5
o0
v1
n-0.71
n2.0
o2
n-1.741
o5
o0
v0
n-0.35
n2.0
o2
o2
o2
o2
n1.1589079248
v0
o5
v1
n2.086
o0
v1
n-0.997
o44
o0
o2
n-1.062
o5
o0
v1
n-0.997
n2.0
o2
n-1.139
o5
o0
v0
n-0.961
n2.0
o2
o2
o2
o2
n-0.11310571920000001
o5
v1
n0.3600000000000001
o5
v0
n3.0
o0
o2
n-3.482
v0
n1.2187
o44
o0
o2
n-2.758
o5
o0
v1
n-0.71
n2.0
o2
n-1.741
o5
o0
v0
n-0.35
n2.0
o2
o2
o2
o2
n-0.5690870836
o5
v1
n1.0859999999999999
o5
v0
n2.0
o0
o2
n-2.278
v0
n2.189158
o44
o0
o2
n-1.062
o5
o0
v1
n-0.997
n2.0
o2
n-1.139
o5
o0
v0
n-0.961
n2.0
o2
o2
o2
o2
n-0.341352069
v0
o5
v1
n-0.21499999999999997
o0
o2
n-1.294
v0
n0.43090200000000006
o44
o0
o2
n-0.647
o5
o0
v0
n-0.333
n2.0
o2
n-0.41
o5
o0
v1
n-0.919
n2.0
o2
o2
o2
o2
n-0.091979361
o5
v1
n-0.14500000000000002
o5
v0
n2.0
o0
o2
n-3.288
v0
n3.2255279999999997
o44
o0
o2
n-1.039
o5
o0
v1
n-1.35
n2.0
o2
n-1.644
o5
o0
v0
n-0.981
n2.0
o2
o2
o2
o2
n-0.4091224395
v0
o5
v1
n-0.0030000000000000027
o0
o2
n-1.89
v0
n1.3040999999999998
o44
o0
o2
n-2.538
o5
o0
v1
n-0.738
n2.0
o2
n-0.945
o5
o0
v0
n-0.69
n2.0
o2
o2
o2
o2
o2
n0.22354749959999998
o5
v1
n0.855
o5
v0
n2.0
o0
v1
n-1.35
o0
o2
n-3.288
v0
n3.2255279999999997
o44
o0
o2
n-1.039
o5
o0
v1
n-1.35
n2.0
o2
n-1.644
o5
o0
v0
n-0.981
n2.0
o2
o2
o2
o2
o2
n0.356571588
v0
o5
v1
n0.785
o0
v1
n-0.919
o0
o2
n-1.294
v0
n0.43090200000000006
o44
o0
o2
n-0.647
o5
o0
v0
n-0.333
n2.0
o2
n-0.41
o5
o0
v1
n-0.919
n2.0
o2
o2
o2
o2
o2
n2.0829543659999996
v0
o5
v1
n0.997
o0
v1
n-0.738
o0
o2
n-1.89
v0
n1.3040999999999998
o44
o0
o2
n-2.538
o5
o0
v1
n-0.738
n2.0
o2
n-0.945
o5
o0
v0
n-0.69
n2.0
o2
o2
o2
o2
o2
n0.5794539624
o5
v1
n2.086
o5
v0
n2.0
o0
v1
n-0.997
o0
o2
n-2.278
v0
n2.189158
o44
o0
o2
n-1.062
o5
o0
v1
n-0.997
n2.0
o2
n-1.139
o5
o0
v0
n-0.961
n2.0
o2
o2
o2
o2
o2
n0.45874349052
o5
v1
n1.36
o5
v0
n3.0
o0
v1
n-0.71
o0
o2
n-3.482
v0
n1.2187
o44
o0
o2
n-2.758
o5
o0
v1
n-0.71
n2.0
o2
n-1.741
o5
o0
v0
n-0.35
n2.0
o2
o2
o2
o2
o2
n-3.1725529399999997
v0
o5
v1
n1.15
o0
v1
n-1.276
o0
o2
n-2.122
v0
n1.7655039999999997
o44
o0
o2
n-1.061
o5
o0
v0
n-0.832
n2.0
o2
n-0.967
o5
o0
v1
n-1.276
n2.0
O11 0
o0
o54
5
o2
n7.2296
o5
o0
o16
o3
n1
v1
n1
n0.54
o2
n-16.928
o5
o0
o16
o3
n1
v1
n1
n0.88
o2
n29.832
o5
o0
o16
o3
n1
v1
n1
n1.23
o2
n-27.901
o5
o0
o16
o3
n1
v1
n1
n1.6
o2
n11.085
o5
o0
o16
o3
n1
v1
n1
n2.0
n1.0
O12 0
o44
o2
v1
o54
6
o2
n-7.487
o5
o0
o16
o3
n1
v1
n1
n0.545
o2
n10.118
o5
o0
o16
o3
n1
v1
n1
n0.85
o2
n-13.608
o5
o0
o16
o3
n1
v1
n1
n1.2
o2
n-25.408
o5
o0
o16
o3
n1
v1
n1
n3.7
o2
n-42.04
o5
o0
o16
o3
n1
v1
n1
n7.5
o2
n-38.668
o5
o0
o16
o3
n1
v1
n1
n10.0
O13 0
n0.0
x2
0 1.00000001
1 1.0
r
b
3
3
k1
0
G0 2
0 0
1 4.4732289572
G1 1
0 0
G2 1
0 0
G3 1
1 0
G4 1
1 0
G5 2
0 0
1 0
G6 2
0 0
1 0
G7 2
0 0
1 -0.9205812
G8 2
0 0
1 0
G9 2
0 0
1 0
G10 2
0 -0.9205812
1 0
G11 1
1 0
G12 1
1 0
